96
Atoms
C 5.470409 0.615946 5.000000
C 6.706272 1.329708 5.000000
C 6.706268 2.758186 5.000000
C 5.470415 3.471780 5.000000
C 5.470408 4.899787 5.000000
C 6.706277 5.613027 5.000000
C 6.706269 7.041190 5.000000
C 5.470418 7.754762 5.000000
C 5.470410 9.183132 5.000000
C 6.706271 9.896888 5.000000
C 6.706261 11.325321 5.000000
C 5.470413 12.038890 5.000000
C 5.470408 13.467178 5.000000
C 6.706263 14.181148 5.000000
C 6.706263 15.610347 5.000000
C 5.470414 16.325205 5.000000
C 5.470414 17.754795 5.000000
C 6.706263 18.469653 5.000000
C 6.706263 19.898852 5.000000
C 5.470408 20.612822 5.000000
C 5.470413 22.041110 5.000000
C 6.706261 22.754679 5.000000
C 6.706271 24.183112 5.000000
C 5.470410 24.896868 5.000000
C 5.470418 26.325238 5.000000
C 6.706269 27.038810 5.000000
C 6.706277 28.466973 5.000000
C 5.470408 29.180214 5.000000
C 5.470415 30.608220 5.000000
C 6.706268 31.321814 5.000000
C 6.706272 32.750292 5.000000
C 5.470409 33.464054 5.000000
C 2.998928 0.616024 5.000000
C 4.234742 1.329785 5.000000
C 4.234735 2.758118 5.000000
C 2.998928 3.471714 5.000000
C 2.998918 4.899863 5.000000
C 4.234742 5.613110 5.000000
C 4.234738 7.041124 5.000000
C 2.998929 7.754703 5.000000
C 2.998923 9.183219 5.000000
C 4.234745 9.896983 5.000000
C 4.234737 11.325264 5.000000
C 2.998928 12.038831 5.000000
C 2.998925 13.467259 5.000000
C 4.234744 14.181229 5.000000
C 4.234744 15.610274 5.000000
C 2.998931 16.325134 5.000000
C 2.998931 17.754866 5.000000
C 4.234744 18.469726 5.000000
C 4.234744 19.898771 5.000000
C 2.998925 20.612741 5.000000
C 2.998928 22.041169 5.000000
C 4.234737 22.754736 5.000000
C 4.234745 24.183017 5.000000
C 2.998923 24.896781 5.000000
C 2.998929 26.325297 5.000000
C 4.234738 27.038876 5.000000
C 4.234742 28.466890 5.000000
C 2.998918 29.180137 5.000000
C 2.998928 30.608286 5.000000
C 4.234735 31.321882 5.000000
C 4.234742 32.750215 5.000000
C 2.998928 33.463976 5.000000
C 0.526668 0.616041 5.000000
C 1.762822 1.329679 5.000000
C 1.762816 2.758236 5.000000
C 0.526668 3.471707 5.000000
C 0.526666 4.899875 5.000000
C 1.762819 5.613008 5.000000
C 1.762817 7.041239 5.000000
C 0.526667 7.754697 5.000000
C 0.526667 9.183233 5.000000
C 1.762822 9.896888 5.000000
C 1.762817 11.325385 5.000000
C 0.526667 12.038826 5.000000
C 0.526667 13.467272 5.000000
C 1.762822 14.181125 5.000000
C 1.762822 15.610384 5.000000
C 0.526668 16.325126 5.000000
C 0.526668 17.754874 5.000000
C 1.762822 18.469616 5.000000
C 1.762822 19.898875 5.000000
C 0.526667 20.612728 5.000000
C 0.526667 22.041174 5.000000
C 1.762817 22.754615 5.000000
C 1.762822 24.183112 5.000000
C 0.526667 24.896767 5.000000
C 0.526667 26.325303 5.000000
C 1.762817 27.038761 5.000000
C 1.762819 28.466992 5.000000
C 0.526666 29.180125 5.000000
C 0.526668 30.608293 5.000000
C 1.762816 31.321764 5.000000
C 1.762822 32.750321 5.000000
C 0.526668 33.463959 5.000000
