96
Atoms
C 4.943743 0.000000 0.000000
C 6.179606 0.713762 0.000000
C 6.179602 2.142240 0.000000
C 4.943749 2.855834 0.000000
C 4.943742 4.283841 0.000000
C 6.179611 4.997081 0.000000
C 6.179603 6.425244 0.000000
C 4.943752 7.138816 0.000000
C 4.943744 8.567186 0.000000
C 6.179605 9.280942 0.000000
C 6.179595 10.709375 0.000000
C 4.943747 11.422944 0.000000
C 4.943742 12.851232 0.000000
C 6.179597 13.565202 0.000000
C 6.179597 14.994401 0.000000
C 4.943748 15.709259 0.000000
C 4.943748 17.138849 0.000000
C 6.179597 17.853707 0.000000
C 6.179597 19.282906 0.000000
C 4.943742 19.996876 0.000000
C 4.943747 21.425164 0.000000
C 6.179595 22.138733 0.000000
C 6.179605 23.567166 0.000000
C 4.943744 24.280922 0.000000
C 4.943752 25.709292 0.000000
C 6.179603 26.422864 0.000000
C 6.179611 27.851027 0.000000
C 4.943742 28.564268 0.000000
C 4.943749 29.992274 0.000000
C 6.179602 30.705868 0.000000
C 6.179606 32.134346 0.000000
C 4.943743 32.848108 0.000000
C 2.472262 0.000078 0.000000
C 3.708076 0.713839 0.000000
C 3.708069 2.142172 0.000000
C 2.472262 2.855768 0.000000
C 2.472252 4.283917 0.000000
C 3.708076 4.997164 0.000000
C 3.708072 6.425178 0.000000
C 2.472263 7.138757 0.000000
C 2.472257 8.567273 0.000000
C 3.708079 9.281037 0.000000
C 3.708071 10.709318 0.000000
C 2.472262 11.422885 0.000000
C 2.472259 12.851313 0.000000
C 3.708078 13.565283 0.000000
C 3.708078 14.994328 0.000000
C 2.472265 15.709188 0.000000
C 2.472265 17.138920 0.000000
C 3.708078 17.853780 0.000000
C 3.708078 19.282825 0.000000
C 2.472259 19.996795 0.000000
C 2.472262 21.425223 0.000000
C 3.708071 22.138790 0.000000
C 3.708079 23.567071 0.000000
C 2.472257 24.280835 0.000000
C 2.472263 25.709351 0.000000
C 3.708072 26.422930 0.000000
C 3.708076 27.850944 0.000000
C 2.472252 28.564191 0.000000
C 2.472262 29.992340 0.000000
C 3.708069 30.705936 0.000000
C 3.708076 32.134269 0.000000
C 2.472262 32.848030 0.000000
C 0.000002 0.000095 0.000000
C 1.236156 0.713733 0.000000
C 1.236150 2.142290 0.000000
C 0.000002 2.855761 0.000000
C 0.000000 4.283929 0.000000
C 1.236153 4.997062 0.000000
C 1.236151 6.425293 0.000000
C 0.000001 7.138751 0.000000
C 0.000001 8.567287 0.000000
C 1.236156 9.280942 0.000000
C 1.236151 10.709439 0.000000
C 0.000001 11.422880 0.000000
C 0.000001 12.851326 0.000000
C 1.236156 13.565179 0.000000
C 1.236156 14.994438 0.000000
C 0.000002 15.709180 0.000000
C 0.000002 17.138928 0.000000
C 1.236156 17.853670 0.000000
C 1.236156 19.282929 0.000000
C 0.000001 19.996782 0.000000
C 0.000001 21.425228 0.000000
C 1.236151 22.138669 0.000000
C 1.236156 23.567166 0.000000
C 0.000001 24.280821 0.000000
C 0.000001 25.709357 0.000000
C 1.236151 26.422815 0.000000
C 1.236153 27.851046 0.000000
C 0.000000 28.564179 0.000000
C 0.000002 29.992347 0.000000
C 1.236150 30.705818 0.000000
C 1.236156 32.134375 0.000000
C 0.000002 32.848013 0.000000
