32
Lattice="2.4595121467478056 0.0 0.0 0.0 0.0 0.0 0.0 0.0 34.08" Properties=species:S:1:pos:R:3 pbc="T F T"
C 0.0 0.0 0.0
C 1.22975607 0.71 0.0
C 1.22975607 2.13 0.0
C 0.0 2.84 0.0
C 0.0 4.26 0.0
C 1.22975607 4.97 0.0
C 1.22975607 6.39 0.0
C 0.0 7.1 0.0
C 0.0 8.52 0.0
C 1.22975607 9.23 0.0
C 1.22975607 10.65 0.0
C 0.0 11.36 0.0
C 0.0 12.78 0.0
C 1.22975607 13.49 0.0
C 1.22975607 14.91 0.0
C 0.0 15.62 0.0
C 0.0 17.04 0.0
C 1.22975607 17.75 0.0
C 1.22975607 19.17 0.0
C 0.0 19.88 0.0
C 0.0 21.3 0.0
C 1.22975607 22.01 0.0
C 1.22975607 23.43 0.0
C 0.0 24.14 0.0
C 0.0 25.56 0.0
C 1.22975607 26.27 0.0
C 1.22975607 27.69 0.0
C 0.0 28.4 0.0
C 0.0 29.82 0.0
C 1.22975607 30.53 0.0
C 1.22975607 31.95 0.0
C 0.0 32.66 0.0
