448
Lattice="34.43317005446928 0.0 0.0 0.0 0.0 0.0 0.0 0.0 34.08" Properties=species:S:1:pos:R:3 pbc="T F T"
C 31.97365791 0.0 0.0
C 33.20341398 0.71 0.0
C 33.20341398 2.13 0.0
C 31.97365791 2.84 0.0
C 31.97365791 4.26 0.0
C 33.20341398 4.97 0.0
C 33.20341398 6.39 0.0
C 31.97365791 7.1 0.0
C 31.97365791 8.52 0.0
C 33.20341398 9.23 0.0
C 33.20341398 10.65 0.0
C 31.97365791 11.36 0.0
C 31.97365791 12.78 0.0
C 33.20341398 13.49 0.0
C 33.20341398 14.91 0.0
C 31.97365791 15.62 0.0
C 31.97365791 17.04 0.0
C 33.20341398 17.75 0.0
C 33.20341398 19.17 0.0
C 31.97365791 19.88 0.0
C 31.97365791 21.3 0.0
C 33.20341398 22.01 0.0
C 33.20341398 23.43 0.0
C 31.97365791 24.14 0.0
C 31.97365791 25.56 0.0
C 33.20341398 26.27 0.0
C 33.20341398 27.69 0.0
C 31.97365791 28.4 0.0
C 31.97365791 29.82 0.0
C 33.20341398 30.53 0.0
C 33.20341398 31.95 0.0
C 31.97365791 32.66 0.0
C 29.51414576 0.0 0.0
C 30.74390183 0.71 0.0
C 30.74390183 2.13 0.0
C 29.51414576 2.84 0.0
C 29.51414576 4.26 0.0
C 30.74390183 4.97 0.0
C 30.74390183 6.39 0.0
C 29.51414576 7.1 0.0
C 29.51414576 8.52 0.0
C 30.74390183 9.23 0.0
C 30.74390183 10.65 0.0
C 29.51414576 11.36 0.0
C 29.51414576 12.78 0.0
C 30.74390183 13.49 0.0
C 30.74390183 14.91 0.0
C 29.51414576 15.62 0.0
C 29.51414576 17.04 0.0
C 30.74390183 17.75 0.0
C 30.74390183 19.17 0.0
C 29.51414576 19.88 0.0
C 29.51414576 21.3 0.0
C 30.74390183 22.01 0.0
C 30.74390183 23.43 0.0
C 29.51414576 24.14 0.0
C 29.51414576 25.56 0.0
C 30.74390183 26.27 0.0
C 30.74390183 27.69 0.0
C 29.51414576 28.4 0.0
C 29.51414576 29.82 0.0
C 30.74390183 30.53 0.0
C 30.74390183 31.95 0.0
C 29.51414576 32.66 0.0
C 27.05463361 0.0 0.0
C 28.28438969 0.71 0.0
C 28.28438969 2.13 0.0
C 27.05463361 2.84 0.0
C 27.05463361 4.26 0.0
C 28.28438969 4.97 0.0
C 28.28438969 6.39 0.0
C 27.05463361 7.1 0.0
C 27.05463361 8.52 0.0
C 28.28438969 9.23 0.0
C 28.28438969 10.65 0.0
C 27.05463361 11.36 0.0
C 27.05463361 12.78 0.0
C 28.28438969 13.49 0.0
C 28.28438969 14.91 0.0
C 27.05463361 15.62 0.0
C 27.05463361 17.04 0.0
C 28.28438969 17.75 0.0
C 28.28438969 19.17 0.0
C 27.05463361 19.88 0.0
C 27.05463361 21.3 0.0
C 28.28438969 22.01 0.0
C 28.28438969 23.43 0.0
C 27.05463361 24.14 0.0
C 27.05463361 25.56 0.0
C 28.28438969 26.27 0.0
C 28.28438969 27.69 0.0
C 27.05463361 28.4 0.0
C 27.05463361 29.82 0.0
C 28.28438969 30.53 0.0
C 28.28438969 31.95 0.0
C 27.05463361 32.66 0.0
C 24.59512147 0.0 0.0
C 25.82487754 0.71 0.0
C 25.82487754 2.13 0.0
C 24.59512147 2.84 0.0
C 24.59512147 4.26 0.0
C 25.82487754 4.97 0.0
C 25.82487754 6.39 0.0
C 24.59512147 7.1 0.0
C 24.59512147 8.52 0.0
C 25.82487754 9.23 0.0
C 25.82487754 10.65 0.0
C 24.59512147 11.36 0.0
C 24.59512147 12.78 0.0
C 25.82487754 13.49 0.0
C 25.82487754 14.91 0.0
C 24.59512147 15.62 0.0
C 24.59512147 17.04 0.0
C 25.82487754 17.75 0.0
C 25.82487754 19.17 0.0
C 24.59512147 19.88 0.0
C 24.59512147 21.3 0.0
C 25.82487754 22.01 0.0
C 25.82487754 23.43 0.0
C 24.59512147 24.14 0.0
C 24.59512147 25.56 0.0
C 25.82487754 26.27 0.0
C 25.82487754 27.69 0.0
C 24.59512147 28.4 0.0
C 24.59512147 29.82 0.0
C 25.82487754 30.53 0.0
C 25.82487754 31.95 0.0
C 24.59512147 32.66 0.0
C 22.13560932 0.0 0.0
C 23.36536539 0.71 0.0
C 23.36536539 2.13 0.0
C 22.13560932 2.84 0.0
C 22.13560932 4.26 0.0
C 23.36536539 4.97 0.0
C 23.36536539 6.39 0.0
C 22.13560932 7.1 0.0
C 22.13560932 8.52 0.0
C 23.36536539 9.23 0.0
C 23.36536539 10.65 0.0
C 22.13560932 11.36 0.0
C 22.13560932 12.78 0.0
C 23.36536539 13.49 0.0
C 23.36536539 14.91 0.0
C 22.13560932 15.62 0.0
C 22.13560932 17.04 0.0
C 23.36536539 17.75 0.0
C 23.36536539 19.17 0.0
C 22.13560932 19.88 0.0
C 22.13560932 21.3 0.0
C 23.36536539 22.01 0.0
C 23.36536539 23.43 0.0
C 22.13560932 24.14 0.0
C 22.13560932 25.56 0.0
C 23.36536539 26.27 0.0
C 23.36536539 27.69 0.0
C 22.13560932 28.4 0.0
C 22.13560932 29.82 0.0
C 23.36536539 30.53 0.0
C 23.36536539 31.95 0.0
C 22.13560932 32.66 0.0
C 19.67609717 0.0 0.0
C 20.90585325 0.71 0.0
C 20.90585325 2.13 0.0
C 19.67609717 2.84 0.0
C 19.67609717 4.26 0.0
C 20.90585325 4.97 0.0
C 20.90585325 6.39 0.0
C 19.67609717 7.1 0.0
C 19.67609717 8.52 0.0
C 20.90585325 9.23 0.0
C 20.90585325 10.65 0.0
C 19.67609717 11.36 0.0
C 19.67609717 12.78 0.0
C 20.90585325 13.49 0.0
C 20.90585325 14.91 0.0
C 19.67609717 15.62 0.0
C 19.67609717 17.04 0.0
C 20.90585325 17.75 0.0
C 20.90585325 19.17 0.0
C 19.67609717 19.88 0.0
C 19.67609717 21.3 0.0
C 20.90585325 22.01 0.0
C 20.90585325 23.43 0.0
C 19.67609717 24.14 0.0
C 19.67609717 25.56 0.0
C 20.90585325 26.27 0.0
C 20.90585325 27.69 0.0
C 19.67609717 28.4 0.0
C 19.67609717 29.82 0.0
C 20.90585325 30.53 0.0
C 20.90585325 31.95 0.0
C 19.67609717 32.66 0.0
C 17.21658503 0.0 0.0
C 18.4463411 0.71 0.0
C 18.4463411 2.13 0.0
C 17.21658503 2.84 0.0
C 17.21658503 4.26 0.0
C 18.4463411 4.97 0.0
C 18.4463411 6.39 0.0
C 17.21658503 7.1 0.0
C 17.21658503 8.52 0.0
C 18.4463411 9.23 0.0
C 18.4463411 10.65 0.0
C 17.21658503 11.36 0.0
C 17.21658503 12.78 0.0
C 18.4463411 13.49 0.0
C 18.4463411 14.91 0.0
C 17.21658503 15.62 0.0
C 17.21658503 17.04 0.0
C 18.4463411 17.75 0.0
C 18.4463411 19.17 0.0
C 17.21658503 19.88 0.0
C 17.21658503 21.3 0.0
C 18.4463411 22.01 0.0
C 18.4463411 23.43 0.0
C 17.21658503 24.14 0.0
C 17.21658503 25.56 0.0
C 18.4463411 26.27 0.0
C 18.4463411 27.69 0.0
C 17.21658503 28.4 0.0
C 17.21658503 29.82 0.0
C 18.4463411 30.53 0.0
C 18.4463411 31.95 0.0
C 17.21658503 32.66 0.0
C 14.75707288 0.0 0.0
C 15.98682895 0.71 0.0
C 15.98682895 2.13 0.0
C 14.75707288 2.84 0.0
C 14.75707288 4.26 0.0
C 15.98682895 4.97 0.0
C 15.98682895 6.39 0.0
C 14.75707288 7.1 0.0
C 14.75707288 8.52 0.0
C 15.98682895 9.23 0.0
C 15.98682895 10.65 0.0
C 14.75707288 11.36 0.0
C 14.75707288 12.78 0.0
C 15.98682895 13.49 0.0
C 15.98682895 14.91 0.0
C 14.75707288 15.62 0.0
C 14.75707288 17.04 0.0
C 15.98682895 17.75 0.0
C 15.98682895 19.17 0.0
C 14.75707288 19.88 0.0
C 14.75707288 21.3 0.0
C 15.98682895 22.01 0.0
C 15.98682895 23.43 0.0
C 14.75707288 24.14 0.0
C 14.75707288 25.56 0.0
C 15.98682895 26.27 0.0
C 15.98682895 27.69 0.0
C 14.75707288 28.4 0.0
C 14.75707288 29.82 0.0
C 15.98682895 30.53 0.0
C 15.98682895 31.95 0.0
C 14.75707288 32.66 0.0
C 12.29756073 0.0 0.0
C 13.52731681 0.71 0.0
C 13.52731681 2.13 0.0
C 12.29756073 2.84 0.0
C 12.29756073 4.26 0.0
C 13.52731681 4.97 0.0
C 13.52731681 6.39 0.0
C 12.29756073 7.1 0.0
C 12.29756073 8.52 0.0
C 13.52731681 9.23 0.0
C 13.52731681 10.65 0.0
C 12.29756073 11.36 0.0
C 12.29756073 12.78 0.0
C 13.52731681 13.49 0.0
C 13.52731681 14.91 0.0
C 12.29756073 15.62 0.0
C 12.29756073 17.04 0.0
C 13.52731681 17.75 0.0
C 13.52731681 19.17 0.0
C 12.29756073 19.88 0.0
C 12.29756073 21.3 0.0
C 13.52731681 22.01 0.0
C 13.52731681 23.43 0.0
C 12.29756073 24.14 0.0
C 12.29756073 25.56 0.0
C 13.52731681 26.27 0.0
C 13.52731681 27.69 0.0
C 12.29756073 28.4 0.0
C 12.29756073 29.82 0.0
C 13.52731681 30.53 0.0
C 13.52731681 31.95 0.0
C 12.29756073 32.66 0.0
C 9.83804859 0.0 0.0
C 11.06780466 0.71 0.0
C 11.06780466 2.13 0.0
C 9.83804859 2.84 0.0
C 9.83804859 4.26 0.0
C 11.06780466 4.97 0.0
C 11.06780466 6.39 0.0
C 9.83804859 7.1 0.0
C 9.83804859 8.52 0.0
C 11.06780466 9.23 0.0
C 11.06780466 10.65 0.0
C 9.83804859 11.36 0.0
C 9.83804859 12.78 0.0
C 11.06780466 13.49 0.0
C 11.06780466 14.91 0.0
C 9.83804859 15.62 0.0
C 9.83804859 17.04 0.0
C 11.06780466 17.75 0.0
C 11.06780466 19.17 0.0
C 9.83804859 19.88 0.0
C 9.83804859 21.3 0.0
C 11.06780466 22.01 0.0
C 11.06780466 23.43 0.0
C 9.83804859 24.14 0.0
C 9.83804859 25.56 0.0
C 11.06780466 26.27 0.0
C 11.06780466 27.69 0.0
C 9.83804859 28.4 0.0
C 9.83804859 29.82 0.0
C 11.06780466 30.53 0.0
C 11.06780466 31.95 0.0
C 9.83804859 32.66 0.0
C 7.37853644 0.0 0.0
C 8.60829251 0.71 0.0
C 8.60829251 2.13 0.0
C 7.37853644 2.84 0.0
C 7.37853644 4.26 0.0
C 8.60829251 4.97 0.0
C 8.60829251 6.39 0.0
C 7.37853644 7.1 0.0
C 7.37853644 8.52 0.0
C 8.60829251 9.23 0.0
C 8.60829251 10.65 0.0
C 7.37853644 11.36 0.0
C 7.37853644 12.78 0.0
C 8.60829251 13.49 0.0
C 8.60829251 14.91 0.0
C 7.37853644 15.62 0.0
C 7.37853644 17.04 0.0
C 8.60829251 17.75 0.0
C 8.60829251 19.17 0.0
C 7.37853644 19.88 0.0
C 7.37853644 21.3 0.0
C 8.60829251 22.01 0.0
C 8.60829251 23.43 0.0
C 7.37853644 24.14 0.0
C 7.37853644 25.56 0.0
C 8.60829251 26.27 0.0
C 8.60829251 27.69 0.0
C 7.37853644 28.4 0.0
C 7.37853644 29.82 0.0
C 8.60829251 30.53 0.0
C 8.60829251 31.95 0.0
C 7.37853644 32.66 0.0
C 4.91902429 0.0 0.0
C 6.14878037 0.71 0.0
C 6.14878037 2.13 0.0
C 4.91902429 2.84 0.0
C 4.91902429 4.26 0.0
C 6.14878037 4.97 0.0
C 6.14878037 6.39 0.0
C 4.91902429 7.1 0.0
C 4.91902429 8.52 0.0
C 6.14878037 9.23 0.0
C 6.14878037 10.65 0.0
C 4.91902429 11.36 0.0
C 4.91902429 12.78 0.0
C 6.14878037 13.49 0.0
C 6.14878037 14.91 0.0
C 4.91902429 15.62 0.0
C 4.91902429 17.04 0.0
C 6.14878037 17.75 0.0
C 6.14878037 19.17 0.0
C 4.91902429 19.88 0.0
C 4.91902429 21.3 0.0
C 6.14878037 22.01 0.0
C 6.14878037 23.43 0.0
C 4.91902429 24.14 0.0
C 4.91902429 25.56 0.0
C 6.14878037 26.27 0.0
C 6.14878037 27.69 0.0
C 4.91902429 28.4 0.0
C 4.91902429 29.82 0.0
C 6.14878037 30.53 0.0
C 6.14878037 31.95 0.0
C 4.91902429 32.66 0.0
C 2.45951215 0.0 0.0
C 3.68926822 0.71 0.0
C 3.68926822 2.13 0.0
C 2.45951215 2.84 0.0
C 2.45951215 4.26 0.0
C 3.68926822 4.97 0.0
C 3.68926822 6.39 0.0
C 2.45951215 7.1 0.0
C 2.45951215 8.52 0.0
C 3.68926822 9.23 0.0
C 3.68926822 10.65 0.0
C 2.45951215 11.36 0.0
C 2.45951215 12.78 0.0
C 3.68926822 13.49 0.0
C 3.68926822 14.91 0.0
C 2.45951215 15.62 0.0
C 2.45951215 17.04 0.0
C 3.68926822 17.75 0.0
C 3.68926822 19.17 0.0
C 2.45951215 19.88 0.0
C 2.45951215 21.3 0.0
C 3.68926822 22.01 0.0
C 3.68926822 23.43 0.0
C 2.45951215 24.14 0.0
C 2.45951215 25.56 0.0
C 3.68926822 26.27 0.0
C 3.68926822 27.69 0.0
C 2.45951215 28.4 0.0
C 2.45951215 29.82 0.0
C 3.68926822 30.53 0.0
C 3.68926822 31.95 0.0
C 2.45951215 32.66 0.0
C 0.0 0.0 0.0
C 1.22975607 0.71 0.0
C 1.22975607 2.13 0.0
C 0.0 2.84 0.0
C 0.0 4.26 0.0
C 1.22975607 4.97 0.0
C 1.22975607 6.39 0.0
C 0.0 7.1 0.0
C 0.0 8.52 0.0
C 1.22975607 9.23 0.0
C 1.22975607 10.65 0.0
C 0.0 11.36 0.0
C 0.0 12.78 0.0
C 1.22975607 13.49 0.0
C 1.22975607 14.91 0.0
C 0.0 15.62 0.0
C 0.0 17.04 0.0
C 1.22975607 17.75 0.0
C 1.22975607 19.17 0.0
C 0.0 19.88 0.0
C 0.0 21.3 0.0
C 1.22975607 22.01 0.0
C 1.22975607 23.43 0.0
C 0.0 24.14 0.0
C 0.0 25.56 0.0
C 1.22975607 26.27 0.0
C 1.22975607 27.69 0.0
C 0.0 28.4 0.0
C 0.0 29.82 0.0
C 1.22975607 30.53 0.0
C 1.22975607 31.95 0.0
C 0.0 32.66 0.0
