  512
Geometry Step: 23
    C     37.58937411      0.61606310      5.00000000      4.00010893
    C     38.82552576      1.32970551      5.00000000      4.00007195
    C     38.82552667      2.75821027      5.00000000      4.00005772
    C     37.58937310      3.47167911      5.00000000      4.00008438
    C     37.58937987      4.89990363      5.00000000      3.99998935
    C     38.82552771      5.61303491      5.00000000      3.99989630
    C     38.82552798      7.04121071      5.00000000      3.99996688
    C     37.58937336      7.75466973      5.00000000      4.00015878
    C     37.58937674      9.18326123      5.00000000      4.00016141
    C     38.82552680      9.89691606      5.00000000      4.00004678
    C     38.82552771     11.32535742      5.00000000      3.99989377
    C     37.58937382     12.03879659      5.00000000      3.99999737
    C     37.58937501     13.46729860      5.00000000      3.99996236
    C     38.82552638     14.18115355      5.00000000      4.00002607
    C     38.82552619     15.61035654      5.00000000      4.00013306
    C     37.58937103     16.32509734      5.00000000      4.00035111
    C     37.58937103     17.75490266      5.00000000      4.00035111
    C     38.82552619     18.46964346      5.00000000      4.00013306
    C     38.82552638     19.89884645      5.00000000      4.00002607
    C     37.58937501     20.61270140      5.00000000      3.99996236
    C     37.58937382     22.04120341      5.00000000      3.99999737
    C     38.82552771     22.75464258      5.00000000      3.99989377
    C     38.82552680     24.18308394      5.00000000      4.00004678
    C     37.58937674     24.89673877      5.00000000      4.00016141
    C     37.58937336     26.32533027      5.00000000      4.00015878
    C     38.82552798     27.03878929      5.00000000      3.99996688
    C     38.82552771     28.46696509      5.00000000      3.99989630
    C     37.58937987     29.18009637      5.00000000      3.99998935
    C     37.58937310     30.60832089      5.00000000      4.00008438
    C     38.82552667     31.32178973      5.00000000      4.00005772
    C     38.82552576     32.75029449      5.00000000      4.00007195
    C     37.58937411     33.46393690      5.00000000      4.00010893
    C     35.11745522      0.61594968      5.00000000      3.99991311
    C     36.35326190      1.32971731      5.00000000      4.00009873
    C     36.35327381      2.75819228      5.00000000      4.00008188
    C     35.11745216      3.47178095      5.00000000      3.99989643
    C     35.11745998      4.89978871      5.00000000      3.99979888
    C     36.35326746      5.61304310      5.00000000      3.99992563
    C     36.35327351      7.04119873      5.00000000      3.99999334
    C     35.11744955      7.75476734      5.00000000      3.99996893
    C     35.11745627      9.18314051      5.00000000      3.99996947
    C     36.35326431      9.89692051      5.00000000      4.00007556
    C     36.35327207     11.32534306      5.00000000      3.99992117
    C     35.11745098     12.03889529      5.00000000      3.99980918
    C     35.11745478     13.46718349      5.00000000      3.99977179
    C     36.35326505     14.18116089      5.00000000      4.00005456
    C     36.35326485     15.61034621      5.00000000      4.00016037
    C     35.11744849     16.32520485      5.00000000      4.00016023
    C     35.11744849     17.75479515      5.00000000      4.00016023
    C     36.35326485     18.46965379      5.00000000      4.00016037
    C     36.35326505     19.89883911      5.00000000      4.00005456
    C     35.11745478     20.61281651      5.00000000      3.99977179
    C     35.11745098     22.04110471      5.00000000      3.99980918
    C     36.35327207     22.75465694      5.00000000      3.99992117
    C     36.35326431     24.18307949      5.00000000      4.00007556
    C     35.11745627     24.89685949      5.00000000      3.99996947
    C     35.11744955     26.32523266      5.00000000      3.99996893
    C     36.35327351     27.03880127      5.00000000      3.99999334
    C     36.35326746     28.46695690      5.00000000      3.99992563
    C     35.11745998     29.18021129      5.00000000      3.99979888
    C     35.11745216     30.60821905      5.00000000      3.99989643
    C     36.35327381     31.32180772      5.00000000      4.00008188
    C     36.35326190     32.75028269      5.00000000      4.00009873
    C     35.11745522     33.46405032      5.00000000      3.99991311
    C     32.64592592      0.61602167      5.00000000      4.00005135
    C     33.88178250      1.32978528      5.00000000      3.99998745
    C     33.88178782      2.75811316      5.00000000      3.99997022
    C     32.64591879      3.47170039      5.00000000      4.00003584
    C     32.64592530      4.89985849      5.00000000      3.99993385
    C     33.88177805      5.61310827      5.00000000      3.99981643
    C     33.88178353      7.04112019      5.00000000      3.99987964
    C     32.64591885      7.75467676      5.00000000      4.00010302
    C     32.64592888      9.18319794      5.00000000      4.00010212
    C     33.88177839      9.89697418      5.00000000      3.99996407
    C     33.88178692     11.32525468      5.00000000      3.99980897
    C     32.64592940     12.03880691      5.00000000      3.99994482
    C     32.64593414     13.46724887      5.00000000      3.99990517
    C     33.88178174     14.18122710      5.00000000      3.99994314
    C     33.88178178     15.61027178      5.00000000      4.00004701
    C     32.64593013     16.32512777      5.00000000      4.00029345
    C     32.64593013     17.75487223      5.00000000      4.00029345
    C     33.88178178     18.46972822      5.00000000      4.00004701
    C     33.88178174     19.89877290      5.00000000      3.99994314
    C     32.64593414     20.61275113      5.00000000      3.99990517
    C     32.64592940     22.04119309      5.00000000      3.99994482
    C     33.88178692     22.75474532      5.00000000      3.99980897
    C     33.88177839     24.18302582      5.00000000      3.99996407
    C     32.64592888     24.89680206      5.00000000      4.00010212
    C     32.64591885     26.32532324      5.00000000      4.00010302
    C     33.88178353     27.03887981      5.00000000      3.99987964
    C     33.88177805     28.46689173      5.00000000      3.99981643
    C     32.64592530     29.18014151      5.00000000      3.99993385
    C     32.64591879     30.60829961      5.00000000      4.00003584
    C     33.88178782     31.32188684      5.00000000      3.99997022
    C     33.88178250     32.75021472      5.00000000      3.99998745
    C     32.64592592     33.46397833      5.00000000      4.00005135
    C     30.17349786      0.61604943      5.00000000      4.00014694
    C     31.40974737      1.32964932      5.00000000      4.00023149
    C     31.40975152      2.75823765      5.00000000      4.00021153
    C     30.17349288      3.47165390      5.00000000      4.00013202
    C     30.17350295      4.89987308      5.00000000      4.00002794
    C     31.40974421      5.61295966      5.00000000      4.00005743
    C     31.40975656      7.04123463      5.00000000      4.00011817
    C     30.17350503      7.75460887      5.00000000      4.00019753
    C     30.17351916      9.18319665      5.00000000      4.00020008
    C     31.40975831      9.89681609      5.00000000      4.00020416
    C     31.40977016     11.32536367      5.00000000      4.00005008
    C     30.17352297     12.03874936      5.00000000      4.00004428
    C     30.17353042     13.46726504      5.00000000      4.00000424
    C     31.40976869     14.18108657      5.00000000      4.00018427
    C     31.40977133     15.61040155      5.00000000      4.00028605
    C     30.17352939     16.32509039      5.00000000      4.00039187
    C     30.17352939     17.75490961      5.00000000      4.00039187
    C     31.40977133     18.46959845      5.00000000      4.00028605
    C     31.40976869     19.89891343      5.00000000      4.00018427
    C     30.17353042     20.61273496      5.00000000      4.00000424
    C     30.17352297     22.04125064      5.00000000      4.00004428
    C     31.40977016     22.75463633      5.00000000      4.00005008
    C     31.40975831     24.18318391      5.00000000      4.00020416
    C     30.17351916     24.89680335      5.00000000      4.00020008
    C     30.17350503     26.32539113      5.00000000      4.00019753
    C     31.40975656     27.03876537      5.00000000      4.00011817
    C     31.40974421     28.46704034      5.00000000      4.00005743
    C     30.17350295     29.18012692      5.00000000      4.00002794
    C     30.17349288     30.60834610      5.00000000      4.00013202
    C     31.40975152     31.32176235      5.00000000      4.00021153
    C     31.40974737     32.75035068      5.00000000      4.00023149
    C     30.17349786     33.46395057      5.00000000      4.00014694
    C     27.70208237      0.61588338      5.00000000      3.99993078
    C     28.93754867      1.32975165      5.00000000      4.00010082
    C     28.93755320      2.75812007      5.00000000      4.00007923
    C     27.70207936      3.47180061      5.00000000      3.99991614
    C     27.70208950      4.89969164      5.00000000      3.99981159
    C     28.93755202      5.61303573      5.00000000      3.99992650
    C     28.93756569      7.04109950      5.00000000      3.99998930
    C     27.70209295      7.75473467      5.00000000      3.99998238
    C     27.70210442      9.18300206      5.00000000      3.99998731
    C     28.93757246      9.89688280      5.00000000      4.00007688
    C     28.93758197     11.32522723      5.00000000      3.99992552
    C     27.70211041     12.03888554      5.00000000      3.99983069
    C     27.70211587     13.46708424      5.00000000      3.99979070
    C     28.93758346     14.18117473      5.00000000      4.00005966
    C     28.93758716     15.61029137      5.00000000      4.00016129
    C     27.70211462     16.32524661      5.00000000      4.00017941
    C     27.70211462     17.75475339      5.00000000      4.00017941
    C     28.93758716     18.46970863      5.00000000      4.00016129
    C     28.93758346     19.89882527      5.00000000      4.00005966
    C     27.70211587     20.61291576      5.00000000      3.99979070
    C     27.70211041     22.04111446      5.00000000      3.99983069
    C     28.93758197     22.75477277      5.00000000      3.99992552
    C     28.93757246     24.18311720      5.00000000      4.00007688
    C     27.70210442     24.89699794      5.00000000      3.99998731
    C     27.70209295     26.32526533      5.00000000      3.99998238
    C     28.93756569     27.03890050      5.00000000      3.99998930
    C     28.93755202     28.46696427      5.00000000      3.99992650
    C     27.70208950     29.18030836      5.00000000      3.99981159
    C     27.70207936     30.60819939      5.00000000      3.99991614
    C     28.93755320     31.32187993      5.00000000      4.00007923
    C     28.93754867     32.75024835      5.00000000      4.00010082
    C     27.70208237     33.46411662      5.00000000      3.99993078
    C     25.23201522      0.61585110      5.00000000      3.99996064
    C     26.46697184      1.32986106      5.00000000      3.99998407
    C     26.46697693      2.75799545      5.00000000      3.99996116
    C     25.23201486      3.47181660      5.00000000      3.99994641
    C     25.23202442      4.89964660      5.00000000      3.99983971
    C     26.46697629      5.61312463      5.00000000      3.99980918
    C     26.46698735      7.04096038      5.00000000      3.99987135
    C     25.23202885      7.75473385      5.00000000      4.00000824
    C     25.23204413      9.18294178      5.00000000      4.00001374
    C     26.46699569      9.89696597      5.00000000      3.99995687
    C     26.46700675     11.32508325      5.00000000      3.99980643
    C     25.23205557     12.03889376      5.00000000      3.99985663
    C     25.23206220     13.46703506      5.00000000      3.99981539
    C     26.46700837     14.18127772      5.00000000      3.99993945
    C     26.46700895     15.61016950      5.00000000      4.00004000
    C     25.23205948     16.32527526      5.00000000      4.00020210
    C     25.23205948     17.75472474      5.00000000      4.00020210
    C     26.46700895     18.46983050      5.00000000      4.00004000
    C     26.46700837     19.89872228      5.00000000      3.99993945
    C     25.23206220     20.61296494      5.00000000      3.99981539
    C     25.23205557     22.04110624      5.00000000      3.99985663
    C     26.46700675     22.75491675      5.00000000      3.99980643
    C     26.46699569     24.18303403      5.00000000      3.99995687
    C     25.23204413     24.89705822      5.00000000      4.00001374
    C     25.23202885     26.32526615      5.00000000      4.00000824
    C     26.46698735     27.03903962      5.00000000      3.99987135
    C     26.46697629     28.46687537      5.00000000      3.99980918
    C     25.23202442     29.18035340      5.00000000      3.99983971
    C     25.23201487     30.60818340      5.00000000      3.99994641
    C     26.46697693     31.32200455      5.00000000      3.99996116
    C     26.46697184     32.75013894      5.00000000      3.99998407
    C     25.23201522     33.46414890      5.00000000      3.99996064
    C     22.76229139      0.61582385      5.00000000      3.99998216
    C     23.99710286      1.32985285      5.00000000      4.00006644
    C     23.99710919      2.75799087      5.00000000      4.00004243
    C     22.76229310      3.47182955      5.00000000      3.99996942
    C     22.76230187      4.89960968      5.00000000      3.99986130
    C     23.99711078      5.61309984      5.00000000      3.99989152
    C     23.99712326      7.04094505      5.00000000      3.99995095
    C     22.76230887      7.75472759      5.00000000      4.00002858
    C     22.76232577      9.18288995      5.00000000      4.00003775
    C     23.99713736      9.89692740      5.00000000      4.00003672
    C     23.99715419     11.32505798      5.00000000      3.99988973
    C     22.76234019     12.03889287      5.00000000      3.99988359
    C     22.76234885     13.46699742      5.00000000      3.99984260
    C     23.99715970     14.18126200      5.00000000      4.00002072
    C     23.99716101     15.61016849      5.00000000      4.00011890
    C     22.76234949     16.32529353      5.00000000      4.00022764
    C     22.76234949     17.75470647      5.00000000      4.00022764
    C     23.99716101     18.46983151      5.00000000      4.00011890
    C     23.99715970     19.89873800      5.00000000      4.00002072
    C     22.76234885     20.61300258      5.00000000      3.99984260
    C     22.76234019     22.04110713      5.00000000      3.99988359
    C     23.99715419     22.75494202      5.00000000      3.99988973
    C     23.99713736     24.18307260      5.00000000      4.00003672
    C     22.76232577     24.89711005      5.00000000      4.00003775
    C     22.76230887     26.32527241      5.00000000      4.00002858
    C     23.99712326     27.03905495      5.00000000      3.99995095
    C     23.99711078     28.46690016      5.00000000      3.99989152
    C     22.76230187     29.18039032      5.00000000      3.99986130
    C     22.76229310     30.60817045      5.00000000      3.99996942
    C     23.99710919     31.32200913      5.00000000      4.00004243
    C     23.99710286     32.75014715      5.00000000      4.00006644
    C     22.76229139     33.46417615      5.00000000      3.99998216
    C     20.29326167      0.61575198      5.00000000      3.99988657
    C     21.52767448      1.32991384      5.00000000      3.99999954
    C     21.52767868      2.75791910      5.00000000      3.99997560
    C     20.29326224      3.47189298      5.00000000      3.99987485
    C     20.29326453      4.89953221      5.00000000      3.99976656
    C     21.52768086      5.61314721      5.00000000      3.99982653
    C     21.52768962      7.04086678      5.00000000      3.99988516
    C     20.29326664      7.75477894      5.00000000      3.99993387
    C     20.29327112      9.18280486      5.00000000      3.99994629
    C     21.52770022      9.89695992      5.00000000      3.99997349
    C     21.52771190     11.32497321      5.00000000      3.99983170
    C     20.29327511     12.03894709      5.00000000      3.99979413
    C     20.29327763     13.46692184      5.00000000      3.99975426
    C     21.52771759     14.18131245      5.00000000      3.99996247
    C     21.52771992     15.61010597      5.00000000      4.00005996
    C     20.29327830     16.32535755      5.00000000      4.00013943
    C     20.29327830     17.75464245      5.00000000      4.00013943
    C     21.52771992     18.46989403      5.00000000      4.00005996
    C     21.52771759     19.89868755      5.00000000      3.99996247
    C     20.29327763     20.61307816      5.00000000      3.99975426
    C     20.29327511     22.04105291      5.00000000      3.99979413
    C     21.52771190     22.75502679      5.00000000      3.99983170
    C     21.52770022     24.18304008      5.00000000      3.99997349
    C     20.29327112     24.89719514      5.00000000      3.99994629
    C     20.29326664     26.32522106      5.00000000      3.99993387
    C     21.52768962     27.03913322      5.00000000      3.99988516
    C     21.52768086     28.46685279      5.00000000      3.99982653
    C     20.29326453     29.18046779      5.00000000      3.99976656
    C     20.29326224     30.60810702      5.00000000      3.99987485
    C     21.52767868     31.32208090      5.00000000      3.99997560
    C     21.52767448     32.75008616      5.00000000      3.99999954
    C     20.29326167     33.46424802      5.00000000      3.99988657
    C     17.82451923      0.61578343      5.00000000      3.99993027
    C     19.05893290      1.32994391      5.00000000      3.99995578
    C     19.05893148      2.75788620      5.00000000      3.99993198
    C     17.82451769      3.47186456      5.00000000      3.99991820
    C     17.82451150      4.89956569      5.00000000      3.99980989
    C     19.05893045      5.61317394      5.00000000      3.99978339
    C     19.05892725      7.04083248      5.00000000      3.99984207
    C     17.82450569      7.75475480      5.00000000      3.99997713
    C     17.82449352      9.18284098      5.00000000      3.99998839
    C     19.05892330      9.89698309      5.00000000      3.99993102
    C     19.05891908     11.32493763      5.00000000      3.99979064
    C     17.82448278     12.03892189      5.00000000      3.99983553
    C     17.82447611     13.46695450      5.00000000      3.99979522
    C     19.05891687     14.18133977      5.00000000      3.99992150
    C     19.05891591     15.61007586      5.00000000      4.00001904
    C     17.82447477     16.32532897      5.00000000      4.00018026
    C     17.82447477     17.75467103      5.00000000      4.00018026
    C     19.05891591     18.46992414      5.00000000      4.00001904
    C     19.05891687     19.89866023      5.00000000      3.99992150
    C     17.82447611     20.61304550      5.00000000      3.99979522
    C     17.82448278     22.04107811      5.00000000      3.99983553
    C     19.05891908     22.75506237      5.00000000      3.99979064
    C     19.05892330     24.18301691      5.00000000      3.99993102
    C     17.82449352     24.89715902      5.00000000      3.99998839
    C     17.82450569     26.32524520      5.00000000      3.99997713
    C     19.05892725     27.03916752      5.00000000      3.99984207
    C     19.05893045     28.46682606      5.00000000      3.99978339
    C     17.82451150     29.18043431      5.00000000      3.99980989
    C     17.82451769     30.60813544      5.00000000      3.99991820
    C     19.05893148     31.32211380      5.00000000      3.99993198
    C     19.05893290     32.75005609      5.00000000      3.99995578
    C     17.82451923     33.46421657      5.00000000      3.99993027
    C     15.35509023      0.61584971      5.00000000      3.99999699
    C     16.58990395      1.32987583      5.00000000      4.00005153
    C     16.58989825      2.75796189      5.00000000      4.00002745
    C     15.35508924      3.47181052      5.00000000      3.99998358
    C     15.35507970      4.89964016      5.00000000      3.99987582
    C     16.58989559      5.61311523      5.00000000      3.99987752
    C     16.58988380      7.04091239      5.00000000      3.99993630
    C     15.35507319      7.75471810      5.00000000      4.00004355
    C     15.35505576      9.18292742      5.00000000      4.00005052
    C     16.58986941      9.89693451      5.00000000      4.00002337
    C     16.58985330     11.32502138      5.00000000      3.99987923
    C     15.35504121     12.03888096      5.00000000      3.99989466
    C     15.35503301     13.46702749      5.00000000      3.99985331
    C     16.58984649     14.18127938      5.00000000      4.00000991
    C     16.58984413     15.61014421      5.00000000      4.00010754
    C     15.35503413     16.32527282      5.00000000      4.00023885
    C     15.35503413     17.75472718      5.00000000      4.00023885
    C     16.58984413     18.46985579      5.00000000      4.00010754
    C     16.58984649     19.89872062      5.00000000      4.00000991
    C     15.35503301     20.61297251      5.00000000      3.99985331
    C     15.35504121     22.04111904      5.00000000      3.99989466
    C     16.58985330     22.75497862      5.00000000      3.99987923
    C     16.58986941     24.18306549      5.00000000      4.00002337
    C     15.35505576     24.89707258      5.00000000      4.00005052
    C     15.35507319     26.32528190      5.00000000      4.00004355
    C     16.58988380     27.03908761      5.00000000      3.99993630
    C     16.58989559     28.46688477      5.00000000      3.99987752
    C     15.35507970     29.18035984      5.00000000      3.99987582
    C     15.35508924     30.60818948      5.00000000      3.99998358
    C     16.58989825     31.32203811      5.00000000      4.00002745
    C     16.58990395     32.75012417      5.00000000      4.00005153
    C     15.35509023     33.46415029      5.00000000      3.99999699
    C     12.88522094      0.61584807      5.00000000      3.99991490
    C     14.12018098      1.32985497      5.00000000      4.00002989
    C     14.12017494      2.75799518      5.00000000      4.00000620
    C     12.88522262      3.47182733      5.00000000      3.99990037
    C     12.88521317      4.89964946      5.00000000      3.99979475
    C     14.12017478      5.61310999      5.00000000      3.99985476
    C     14.12016309      7.04095436      5.00000000      3.99991529
    C     12.88520966      7.75475325      5.00000000      3.99996478
    C     12.88519731      9.18295286      5.00000000      3.99996963
    C     14.12015157      9.89694533      5.00000000      4.00000043
    C     14.12013723     11.32507224      5.00000000      3.99985117
    C     12.88518911     12.03890914      5.00000000      3.99981229
    C     12.88518382     13.46704040      5.00000000      3.99977174
    C     14.12013401     14.18126846      5.00000000      3.99998295
    C     14.12013366     15.61017004      5.00000000      4.00008229
    C     12.88518643     16.32528014      5.00000000      4.00015973
    C     12.88518643     17.75471986      5.00000000      4.00015973
    C     14.12013366     18.46982996      5.00000000      4.00008229
    C     14.12013401     19.89873154      5.00000000      3.99998295
    C     12.88518382     20.61295960      5.00000000      3.99977174
    C     12.88518911     22.04109086      5.00000000      3.99981229
    C     14.12013723     22.75492776      5.00000000      3.99985117
    C     14.12015157     24.18305467      5.00000000      4.00000043
    C     12.88519731     24.89704714      5.00000000      3.99996963
    C     12.88520966     26.32524675      5.00000000      3.99996478
    C     14.12016309     27.03904564      5.00000000      3.99991529
    C     14.12017478     28.46689001      5.00000000      3.99985476
    C     12.88521317     29.18035054      5.00000000      3.99979475
    C     12.88522262     30.60817267      5.00000000      3.99990037
    C     14.12017494     31.32200482      5.00000000      4.00000620
    C     14.12018098     32.75014503      5.00000000      4.00002989
    C     12.88522094     33.46415193      5.00000000      3.99991490
    C     10.41464313      0.61596560      5.00000000      4.00003206
    C     11.65011444      1.32982960      5.00000000      3.99999987
    C     11.65010934      2.75803420      5.00000000      3.99997769
    C     10.41464679      3.47172774      5.00000000      4.00001717
    C     10.41463634      4.89978116      5.00000000      3.99991311
    C     11.65011083      5.61310258      5.00000000      3.99982549
    C     11.65009814      7.04100579      5.00000000      3.99988847
    C     10.41463251      7.75467133      5.00000000      4.00008377
    C     10.41461963      9.18309813      5.00000000      4.00008792
    C     11.65009128      9.89694716      5.00000000      3.99997542
    C     11.65008229     11.32513233      5.00000000      3.99982439
    C     10.41461466     12.03881664      5.00000000      3.99993220
    C     10.41460815     13.46717433      5.00000000      3.99989233
    C     11.65008061     14.18124854      5.00000000      3.99995834
    C     11.65007857     15.61020766      5.00000000      4.00005980
    C     10.41460847     16.32516823      5.00000000      4.00028060
    C     10.41460847     17.75483177      5.00000000      4.00028060
    C     11.65007857     18.46979234      5.00000000      4.00005980
    C     11.65008061     19.89875146      5.00000000      3.99995834
    C     10.41460815     20.61282567      5.00000000      3.99989233
    C     10.41461466     22.04118336      5.00000000      3.99993220
    C     11.65008229     22.75486767      5.00000000      3.99982439
    C     11.65009128     24.18305284      5.00000000      3.99997542
    C     10.41461963     24.89690187      5.00000000      4.00008792
    C     10.41463251     26.32532867      5.00000000      4.00008377
    C     11.65009814     27.03899421      5.00000000      3.99988847
    C     11.65011083     28.46689742      5.00000000      3.99982549
    C     10.41463634     29.18021884      5.00000000      3.99991311
    C     10.41464679     30.60827226      5.00000000      4.00001717
    C     11.65010934     31.32196580      5.00000000      3.99997769
    C     11.65011444     32.75017040      5.00000000      3.99999987
    C     10.41464313     33.46403440      5.00000000      4.00003206
    C      7.94244395      0.61607620      5.00000000      4.00016331
    C      9.17869909      1.32967171      5.00000000      4.00021553
    C      9.17869456      2.75820776      5.00000000      4.00019468
    C      7.94245030      3.47163758      5.00000000      4.00014801
    C      7.94244207      4.89990730      5.00000000      4.00004474
    C      9.17869871      5.61296910      5.00000000      4.00004089
    C      9.17868403      7.04119559      5.00000000      4.00010269
    C      7.94244469      7.75460511      5.00000000      4.00021325
    C      7.94243048      9.18323851      5.00000000      4.00021373
    C      9.17867880      9.89682034      5.00000000      4.00018993
    C      9.17866757     11.32532406      5.00000000      4.00003723
    C      7.94242858     12.03873999      5.00000000      4.00005751
    C      7.94242185     13.46729812      5.00000000      4.00001723
    C      9.17866727     14.18110210      5.00000000      4.00017131
    C      9.17866340     15.61037551      5.00000000      4.00027283
    C      7.94242447     16.32506961      5.00000000      4.00040497
    C      7.94242447     17.75493039      5.00000000      4.00040497
    C      9.17866340     18.46962449      5.00000000      4.00027283
    C      9.17866727     19.89889790      5.00000000      4.00017131
    C      7.94242185     20.61270188      5.00000000      4.00001723
    C      7.94242858     22.04126001      5.00000000      4.00005751
    C      9.17866757     22.75467594      5.00000000      4.00003723
    C      9.17867880     24.18317966      5.00000000      4.00018993
    C      7.94243048     24.89676149      5.00000000      4.00021373
    C      7.94244469     26.32539489      5.00000000      4.00021325
    C      9.17868403     27.03880441      5.00000000      4.00010269
    C      9.17869871     28.46703090      5.00000000      4.00004089
    C      7.94244207     29.18009270      5.00000000      4.00004474
    C      7.94245030     30.60836242      5.00000000      4.00014801
    C      9.17869456     31.32179224      5.00000000      4.00019468
    C      9.17869909     32.75032829      5.00000000      4.00021553
    C      7.94244395     33.46392380      5.00000000      4.00016331
    C      5.47040887      0.61594623      5.00000000      3.99992025
    C      6.70627192      1.32970769      5.00000000      4.00011893
    C      6.70626777      2.75818591      5.00000000      4.00010009
    C      5.47041460      3.47177995      5.00000000      3.99990435
    C      5.47040816      4.89978650      5.00000000      3.99980500
    C      6.70627737      5.61302693      5.00000000      3.99994620
    C      6.70626939      7.04118994      5.00000000      4.00000758
    C      5.47041789      7.75476182      5.00000000      3.99997461
    C      5.47040992      9.18313204      5.00000000      3.99997433
    C      6.70627065      9.89688827      5.00000000      4.00009267
    C      6.70626051     11.32532080      5.00000000      3.99993735
    C      5.47041256     12.03888988      5.00000000      3.99981558
    C      5.47040840     13.46717799      5.00000000      3.99977687
    C      6.70626334     14.18114790      5.00000000      4.00007203
    C      6.70626288     15.61034686      5.00000000      4.00017467
    C      5.47041426     16.32520481      5.00000000      4.00016547
    C      5.47041426     17.75479519      5.00000000      4.00016547
    C      6.70626288     18.46965314      5.00000000      4.00017467
    C      6.70626334     19.89885210      5.00000000      4.00007203
    C      5.47040840     20.61282201      5.00000000      3.99977687
    C      5.47041256     22.04111012      5.00000000      3.99981558
    C      6.70626051     22.75467920      5.00000000      3.99993735
    C      6.70627065     24.18311173      5.00000000      4.00009267
    C      5.47040992     24.89686796      5.00000000      3.99997433
    C      5.47041789     26.32523818      5.00000000      3.99997461
    C      6.70626939     27.03881006      5.00000000      4.00000758
    C      6.70627737     28.46697307      5.00000000      3.99994620
    C      5.47040816     29.18021350      5.00000000      3.99980500
    C      5.47041460     30.60822005      5.00000000      3.99990435
    C      6.70626777     31.32181409      5.00000000      4.00010009
    C      6.70627192     32.75029231      5.00000000      4.00011893
    C      5.47040887     33.46405377      5.00000000      3.99992025
    C      2.99892816      0.61602365      5.00000000      4.00003333
    C      4.23474209      1.32978476      5.00000000      3.99997967
    C      4.23473532      2.75811753      5.00000000      3.99996402
    C      2.99892831      3.47171361      5.00000000      4.00001275
    C      2.99891802      4.89986252      5.00000000      3.99991637
    C      4.23474168      5.61310969      5.00000000      3.99980915
    C      4.23473756      7.04112402      5.00000000      3.99987504
    C      2.99892938      7.75470324      5.00000000      4.00008643
    C      2.99892256      9.18321877      5.00000000      4.00008812
    C      4.23474531      9.89698284      5.00000000      3.99995822
    C      4.23473686     11.32526413      5.00000000      3.99980351
    C      2.99892811     12.03883080      5.00000000      3.99992594
    C      2.99892500     13.46725890      5.00000000      3.99988949
    C      4.23474398     14.18122919      5.00000000      3.99993732
    C      4.23474398     15.61027413      5.00000000      4.00004211
    C      2.99893094     16.32513435      5.00000000      4.00027827
    C      2.99893094     17.75486565      5.00000000      4.00027827
    C      4.23474398     18.46972587      5.00000000      4.00004211
    C      4.23474398     19.89877081      5.00000000      3.99993732
    C      2.99892500     20.61274110      5.00000000      3.99988949
    C      2.99892811     22.04116920      5.00000000      3.99992594
    C      4.23473686     22.75473587      5.00000000      3.99980351
    C      4.23474531     24.18301716      5.00000000      3.99995822
    C      2.99892256     24.89678123      5.00000000      4.00008812
    C      2.99892938     26.32529676      5.00000000      4.00008643
    C      4.23473756     27.03887598      5.00000000      3.99987504
    C      4.23474168     28.46689031      5.00000000      3.99980915
    C      2.99891802     29.18013748      5.00000000      3.99991637
    C      2.99892831     30.60828639      5.00000000      4.00001275
    C      4.23473532     31.32188247      5.00000000      3.99996402
    C      4.23474209     32.75021524      5.00000000      3.99997967
    C      2.99892816     33.46397635      5.00000000      4.00003333
    C      0.52666804      0.61604080      5.00000000      4.00000938
    C      1.76282238      1.32967878      5.00000000      4.00017274
    C      1.76281634      2.75823639      5.00000000      4.00015661
    C      0.52666840      3.47170710      5.00000000      3.99998333
    C      0.52666603      4.89987488      5.00000000      3.99988880
    C      1.76281912      5.61300751      5.00000000      3.99999740
    C      1.76281650      7.04123893      5.00000000      4.00006696
    C      0.52666732      7.75469707      5.00000000      4.00005800
    C      0.52666718      9.18323331      5.00000000      4.00006167
    C      1.76282165      9.89688785      5.00000000      4.00014741
    C      1.76281714     11.32538481      5.00000000      3.99999379
    C      0.52666741     12.03882555      5.00000000      3.99989675
    C      0.52666707     13.46727153      5.00000000      3.99986209
    C      1.76282179     14.18112501      5.00000000      4.00012659
    C      1.76282216     15.61038431      5.00000000      4.00023352
    C      0.52666816     16.32512555      5.00000000      4.00025062
    C      0.52666816     17.75487445      5.00000000      4.00025062
    C      1.76282216     18.46961569      5.00000000      4.00023352
    C      1.76282179     19.89887499      5.00000000      4.00012659
    C      0.52666707     20.61272847      5.00000000      3.99986209
    C      0.52666741     22.04117445      5.00000000      3.99989675
    C      1.76281714     22.75461519      5.00000000      3.99999379
    C      1.76282165     24.18311215      5.00000000      4.00014741
    C      0.52666718     24.89676669      5.00000000      4.00006167
    C      0.52666732     26.32530293      5.00000000      4.00005800
    C      1.76281650     27.03876107      5.00000000      4.00006696
    C      1.76281912     28.46699249      5.00000000      3.99999740
    C      0.52666603     29.18012512      5.00000000      3.99988880
    C      0.52666840     30.60829290      5.00000000      3.99998333
    C      1.76281634     31.32176361      5.00000000      4.00015661
    C      1.76282238     32.75032122      5.00000000      4.00017274
    C      0.52666804     33.46395920      5.00000000      4.00000938
